10
0 5 19 28 26 25 3 9 4 16 
5 0 25 15 16 21 13 26 7 4 
19 25 0 16 1 29 27 13 14 20 
28 15 16 0 25 25 1 23 15 9 
26 16 1 25 0 24 26 8 19 4 
25 21 29 25 24 0 29 11 1 1 
3 13 27 1 26 29 0 1 21 18 
9 26 13 23 8 11 1 0 1 29 
4 7 14 15 19 1 21 1 0 13 
16 4 20 9 4 1 18 29 13 0 
